************************************************************************
file with basedata            : cm158_.bas
initial value random generator: 444328184
************************************************************************
projects                      :  1
jobs (incl. supersource/sink ):  18
horizon                       :  69
RESOURCES
  - renewable                 :  2   R
  - nonrenewable              :  2   N
  - doubly constrained        :  0   D
************************************************************************
PROJECT INFORMATION:
pronr.  #jobs rel.date duedate tardcost  MPM-Time
    1     16      0       23       10       23
************************************************************************
PRECEDENCE RELATIONS:
jobnr.    #modes  #successors   successors
   1        1          3           2   3   4
   2        1          3           5   8  11
   3        1          3           5   6   9
   4        1          3           7   8  11
   5        1          2          10  13
   6        1          3          13  14  17
   7        1          1           9
   8        1          2          12  16
   9        1          3          13  14  17
  10        1          3          12  16  17
  11        1          1          15
  12        1          1          14
  13        1          1          16
  14        1          1          15
  15        1          1          18
  16        1          1          18
  17        1          1          18
  18        1          0        
************************************************************************
REQUESTS/DURATIONS:
jobnr. mode duration  R 1  R 2  N 1  N 2
------------------------------------------------------------------------
  1      1     0       0    0    0    0
  2      1     9       0    7    4    8
  3      1     1       0    9    4    1
  4      1     4       3    0    2    5
  5      1     1       0    3    8    5
  6      1    10       1    0    3    4
  7      1     1       0    7    8    4
  8      1     1       7    0    7    6
  9      1     2       9    0    2    4
 10      1     1       0    8    4    5
 11      1     9       0    7    7    3
 12      1     1       0    2    7    8
 13      1     5       8    0    7    5
 14      1     9       0    4    6    8
 15      1     2       4    0    4    6
 16      1     7      10    0    6    4
 17      1     6       2    0    1    8
 18      1     0       0    0    0    0
************************************************************************
RESOURCEAVAILABILITIES:
  R 1  R 2  N 1  N 2
   12   13   80   84
************************************************************************
